c generated by sgen
p cnf 41 92
-2 -3 -4 0
-1 -3 -4 0
-1 -2 -4 0
-1 -2 -3 0
-6 -7 -8 0
-5 -7 -8 0
-5 -6 -8 0
-5 -6 -7 0
-10 -11 -12 0
-9 -11 -12 0
-9 -10 -12 0
-9 -10 -11 0
-14 -15 -16 0
-13 -15 -16 0
-13 -14 -16 0
-13 -14 -15 0
-18 -19 -20 0
-17 -19 -20 0
-17 -18 -20 0
-17 -18 -19 0
-22 -23 -24 0
-21 -23 -24 0
-21 -22 -24 0
-21 -22 -23 0
-26 -27 -28 0
-25 -27 -28 0
-25 -26 -28 0
-25 -26 -27 0
-30 -31 -32 0
-29 -31 -32 0
-29 -30 -32 0
-29 -30 -31 0
-34 -35 -36 0
-33 -35 -36 0
-33 -34 -36 0
-33 -34 -35 0
-37 -38 -39 0
-37 -38 -40 0
-37 -38 -41 0
-37 -39 -40 0
-37 -39 -41 0
-37 -40 -41 0
-38 -39 -40 0
-38 -39 -41 0
-38 -40 -41 0
-39 -40 -41 0
19 34 7 0
38 34 7 0
38 19 7 0
38 19 34 0
27 37 23 0
31 37 23 0
31 27 23 0
31 27 37 0
36 1 39 0
11 1 39 0
11 36 39 0
11 36 1 0
33 15 24 0
12 15 24 0
12 33 24 0
12 33 15 0
9 17 2 0
26 17 2 0
26 9 2 0
26 9 17 0
41 6 4 0
14 6 4 0
14 41 4 0
14 41 6 0
3 29 18 0
13 29 18 0
13 3 18 0
13 3 29 0
8 32 28 0
35 32 28 0
35 8 28 0
35 8 32 0
30 5 21 0
10 5 21 0
10 30 21 0
10 30 5 0
16 40 22 0
16 40 20 0
16 40 25 0
16 22 20 0
16 22 25 0
16 20 25 0
40 22 20 0
40 22 25 0
40 20 25 0
22 20 25 0
